language ESSENCE' 1.0
$$---------------------------------------------------------------------------
$$ size of the matrix
$$---------------------------------------------------------------------------
$letting r be 3
$letting c be 3
$$letting a be 1
$letting b be 1
$
$
$$---------------------------------------------------------------------------
$$ Actual parameters
$$---------------------------------------------------------------------------
$
$$letting topMatrix be [
$$[1, 0]
$$]
$
$letting topMatrix be [
$[2, 0, 0]
$]
$
$$letting f be [
$$[2, 0, 0]
$$]

letting num be 3
